NAME : cvrp-A-U-4-19.1622.tour
COMMENT : Length = 1622
COMMENT : Found by LKH [Keld Helsgaun] Thu May 17 22:42:37 2018
TYPE : TOUR
DIMENSION : 31
TOUR_SECTION
1
22
26
23
31
29
7
8
15
12
21
28
24
20
27
4
14
5
25
17
13
3
10
11
19
30
9
2
16
6
18
-1
EOF
